db/data/263882791413086861530671193973062824243.z3.out
unsat
-------------------
8.326357409
